(set-info :smt-lib-version 2.6)
(set-logic QF_SLIA)
(set-info :source |
Generated by: Joel Day, Thorsten Ehlers, Mitja Kulczynski, Federico Mora, Florin Manea, Dirk Nowotka, Danny Poulsen, Zhengyang Lu
Application: Test WOORPJE
Target solver: WOORPJE
Publications: Day, J. D., Ehlers, T., Kulczynski, M., Manea, F., Nowotka, D., & Poulsen, D. B. (2019). On solving word equations using SAT. In RP 2019
Description: Enriches a system of 30 word equations by suitable linear constraints
|)
(set-info :license "https://creativecommons.org/licenses/by/4.0/")
(set-info :category "random")
(set-info :status unknown)

(declare-fun C () String)
(declare-fun E () String)
(declare-fun A () String)
(assert (= (str.++  "bfff" C "f")  (str.++  "bfffffbcebffceff" A "deabeaddbeabccbdacf") ))
(assert (= (str.++  "cfdbdceefefcbbcdcdadfaaaffdccfdedcdfbcff" "")  (str.++  "cfdbdceefefcbbcdcda" A "ffdccfdedcdfbcff") ))
(assert (= (str.++  "eeadceabbcafddcfe" E "cbfbadbefffccdeeeb")  (str.++  "eeadceabbcafddcfefffffcbfbadbefffccdeeeb" "") ))
(assert (>=(* (str.len C) 17) 544))
(assert (<=(* (str.len C) 15) 1395))
(assert (<=(* (str.len A) 8) 312))
(assert (>=(* (str.len E) 16) 32))
(check-sat)

(exit)
